\ Equation counts
\     Total        E        G        L        N        X        C        B
\         1        0        0        1        0        0        0        0
\ 
\ Variable counts
\                  x        b        i      s1s      s2s       sc       si
\     Total     cont   binary  integer     sos1     sos2    scont     sint
\        30        0        0       30        0        0        0        0
\ 
\ Nonzero counts
\     Total    const       NL      DLL
\        60       30       30        0
\ 
Minimize
 obj: 29 i2 + 28 i3 + 27 i4 + 26 i5 + 25 i6 + 24 i7 + 23 i8 + 22 i9 + 21 i10 + 20 i11 + 19 i12 + 18 i13 
  + 17 i14 + 16 i15 + 15 i16 + 14 i17 + 13 i18 + 12 i19 + 11 i20 + 10 i21 + 9 i22 + 8 i23 + 7 i24 + 6 i25 
  + 5 i26 + 4 i27 + 3 i28 + 2 i29 + i30 + 30 i31

Subject To
 e2: - 98 i2 - 98 i3 - 98 i4 - 98 i5 - 98 i6 - 98 i7 - 98 i8 - 98 i9 - 98 i10 - 98 i11 - 98 i12 - 98 i13 
  - 98 i14 - 98 i15 - 98 i16 - 98 i17 - 98 i18 - 98 i19 - 98 i20 - 98 i21 - 98 i22 - 98 i23 - 98 i24 
  - 98 i25 - 98 i26 - 98 i27 - 98 i28 - 98 i29 - 98 i30 - 98 i31 + [ 100 i2^2 - 4 i2 * i31 + 100 i3^2 
  - 4 i3 * i4 + 100 i4^2 + 100 i5^2 - 4 i5 * i6 + 100 i6^2 + 100 i7^2 - 4 i7 * i8 + 100 i8^2 + 100 i9^2 
  - 4 i9 * i10 + 100 i10^2 + 100 i11^2 - 4 i11 * i12 + 100 i12^2 + 100 i13^2 - 4 i13 * i14 + 100 i14^2 
  + 100 i15^2 - 4 i15 * i16 + 100 i16^2 + 100 i17^2 - 4 i17 * i18 + 100 i18^2 + 100 i19^2 - 4 i19 * i20 
  + 100 i20^2 + 100 i21^2 - 4 i21 * i22 + 100 i22^2 + 100 i23^2 - 4 i23 * i24 + 100 i24^2 + 100 i25^2 
  - 4 i25 * i26 + 100 i26^2 + 100 i27^2 - 4 i27 * i28 + 100 i28^2 + 100 i29^2 - 4 i29 * i30 + 100 i30^2 
  + 100 i31^2 ] <= -1

Bounds
 -100 <= i2
 -100 <= i3
 -100 <= i4
 -100 <= i5
 -100 <= i6
 -100 <= i7
 -100 <= i8
 -100 <= i9
 -100 <= i10
 -100 <= i11
 -100 <= i12
 -100 <= i13
 -100 <= i14
 -100 <= i15
 -100 <= i16
 -100 <= i17
 -100 <= i18
 -100 <= i19
 -100 <= i20
 -100 <= i21
 -100 <= i22
 -100 <= i23
 -100 <= i24
 -100 <= i25
 -100 <= i26
 -100 <= i27
 -100 <= i28
 -100 <= i29
 -100 <= i30
 -100 <= i31

General
 i2 i3 i4 i5 i6 i7 i8 i9 i10 i11 i12 i13 i14 i15 i16 i17 i18 i19 i20 i21 i22 i23 i24 i25 i26
 i27 i28 i29 i30 i31

End
